10

33 32 39 14 48 44 11 43 41 40 
56 97 96 41 65 67 74 111 63 93 
46 20 1 5 27 23 27 2 9 19 

0 24 15 7 10 23 22 19 22 19 
7 0 5 13 5 12 12 8 24 8 
10 18 0 7 8 19 11 13 21 6 
24 9 23 0 7 7 10 7 10 5 
23 24 23 14 0 24 21 22 24 8 
6 25 25 9 8 0 17 12 11 9 
16 17 25 17 15 8 0 13 15 8 
18 16 13 19 13 9 14 0 20 8 
7 16 25 10 15 25 10 19 0 7 
20 24 11 24 13 24 21 23 11 0 